nbGenes = 10;
preference = [[0 35 65 78 9 54 68 54 52 50 ]
[65 0 86 56 14 95 7 9 50 38 ]
[35 14 0 2 19 52 93 69 40 94 ]
[22 44 98 0 54 38 11 11 15 7 ]
[91 86 81 46 0 39 26 33 87 7 ]
[46 5 48 62 61 0 4 47 81 96 ]
[32 93 7 89 74 96 0 84 39 42 ]
[46 91 31 89 67 53 16 0 85 9 ]
[48 50 60 85 13 19 61 15 0 37 ]
[50 62 6 93 93 4 58 91 63 0 ]
];
